\ Model model_3d_init_1
\ LP format - for model browsing. Use MPS format to capture full model detail.
Minimize
  Rij[0,1,0] + Rij[1,2,0] + Rij[1,3,0] + Rij[2,3,0] + Rij[2,4,0]
   + Rij[3,4,0] + Rij[4,5,0] + Rij[4,6,0] + Rij[5,0,0] + Rij[6,0,0]
   + Bij[0,1,0] + Bij[1,2,0] + Bij[1,3,0] + Bij[2,3,0] + Bij[2,4,0]
   + Bij[3,4,0] + Bij[4,5,0] + Bij[4,6,0] + Bij[5,0,0] + Bij[6,0,0]
   + Fij[0,1,0] + Fij[1,2,0] + Fij[1,3,0] + Fij[2,3,0] + Fij[2,4,0]
   + Fij[3,4,0] + Fij[4,5,0] + Fij[4,6,0] + Fij[5,0,0] + Fij[6,0,0]
   + 100 mk[0]
Subject To
 onerotation[0]: r[0,0] + r[0,1] + r[0,2] + r[0,3] = 1
 onerotation[1]: r[1,0] + r[1,1] + r[1,2] + r[1,3] = 1
 onerotation[2]: r[2,0] + r[2,1] + r[2,2] + r[2,3] = 1
 onerotation[3]: r[3,0] + r[3,1] + r[3,2] + r[3,3] = 1
 onerotation[4]: r[4,0] + r[4,1] + r[4,2] + r[4,3] = 1
 onerotation[5]: r[5,0] + r[5,1] + r[5,2] + r[5,3] = 1
 onerotation[6]: r[6,0] + r[6,1] + r[6,2] + r[6,3] = 1
 onecontainer[0]: mvk[0,0] = 1
 onecontainer[1]: mvk[1,0] = 1
 onecontainer[2]: mvk[2,0] = 1
 onecontainer[3]: mvk[3,0] = 1
 onecontainer[4]: mvk[4,0] = 1
 onecontainer[5]: mvk[5,0] = 1
 onecontainer[6]: mvk[6,0] = 1
 boxxv[0,0]: x[0] + 4 r[0,0] + 1.5 r[0,1] + 4 r[0,2] + 1.5 r[0,3]
   + 99999 mvk[0,0] <= 100002
 boxxv[1,0]: x[1] + 4 r[1,0] + 1.5 r[1,1] + 4 r[1,2] + 1.5 r[1,3]
   + 99999 mvk[1,0] <= 100002
 boxxv[2,0]: x[2] + r[2,0] + r[2,1] + r[2,2] + r[2,3] + 99999 mvk[2,0]
   <= 100002
 boxxv[3,0]: x[3] + r[3,0] + r[3,1] + r[3,2] + r[3,3] + 99999 mvk[3,0]
   <= 100002
 boxxv[4,0]: x[4] + 1.6 r[4,0] + 1.6 r[4,1] + 1.6 r[4,2] + 1.6 r[4,3]
   + 99999 mvk[4,0] <= 100002
 boxxv[5,0]: x[5] + 0.7 r[5,0] + 0.7 r[5,1] + 0.7 r[5,2] + 0.7 r[5,3]
   + 99999 mvk[5,0] <= 100002
 boxxv[6,0]: x[6] + 0.7 r[6,0] + 0.7 r[6,1] + 0.7 r[6,2] + 0.7 r[6,3]
   + 99999 mvk[6,0] <= 100002
 boxyv[0,0]: y[0] + 1.5 r[0,0] + 4 r[0,1] + 1.5 r[0,2] + 4 r[0,3]
   + 99999 mvk[0,0] <= 100011
 boxyv[1,0]: y[1] + 1.5 r[1,0] + 4 r[1,1] + 1.5 r[1,2] + 4 r[1,3]
   + 99999 mvk[1,0] <= 100011
 boxyv[2,0]: y[2] + r[2,0] + r[2,1] + r[2,2] + r[2,3] + 99999 mvk[2,0]
   <= 100011
 boxyv[3,0]: y[3] + r[3,0] + r[3,1] + r[3,2] + r[3,3] + 99999 mvk[3,0]
   <= 100011
 boxyv[4,0]: y[4] + 1.6 r[4,0] + 1.6 r[4,1] + 1.6 r[4,2] + 1.6 r[4,3]
   + 99999 mvk[4,0] <= 100011
 boxyv[5,0]: y[5] + 0.7 r[5,0] + 0.7 r[5,1] + 0.7 r[5,2] + 0.7 r[5,3]
   + 99999 mvk[5,0] <= 100011
 boxyv[6,0]: y[6] + 0.7 r[6,0] + 0.7 r[6,1] + 0.7 r[6,2] + 0.7 r[6,3]
   + 99999 mvk[6,0] <= 100011
 boxzv[0,0]: z[0] + 99999 mvk[0,0] <= 100001.5
 boxzv[1,0]: z[1] + 99999 mvk[1,0] <= 100001.5
 boxzv[2,0]: z[2] + 99999 mvk[2,0] <= 100001.8
 boxzv[3,0]: z[3] + 99999 mvk[3,0] <= 100001.8
 boxzv[4,0]: z[4] + 99999 mvk[4,0] <= 100001.8
 boxzv[5,0]: z[5] + 99999 mvk[5,0] <= 100002
 boxzv[6,0]: z[6] + 99999 mvk[6,0] <= 100002
 nuvklogical1[0,1,0]: - mvk[0,0] - mvk[1,0] + nuvk[0,1,0] >= -1
 nuvklogical1[0,2,0]: - mvk[0,0] - mvk[2,0] + nuvk[0,2,0] >= -1
 nuvklogical1[0,3,0]: - mvk[0,0] - mvk[3,0] + nuvk[0,3,0] >= -1
 nuvklogical1[0,4,0]: - mvk[0,0] - mvk[4,0] + nuvk[0,4,0] >= -1
 nuvklogical1[0,5,0]: - mvk[0,0] - mvk[5,0] + nuvk[0,5,0] >= -1
 nuvklogical1[0,6,0]: - mvk[0,0] - mvk[6,0] + nuvk[0,6,0] >= -1
 nuvklogical1[1,2,0]: - mvk[1,0] - mvk[2,0] + nuvk[1,2,0] >= -1
 nuvklogical1[1,3,0]: - mvk[1,0] - mvk[3,0] + nuvk[1,3,0] >= -1
 nuvklogical1[1,4,0]: - mvk[1,0] - mvk[4,0] + nuvk[1,4,0] >= -1
 nuvklogical1[1,5,0]: - mvk[1,0] - mvk[5,0] + nuvk[1,5,0] >= -1
 nuvklogical1[1,6,0]: - mvk[1,0] - mvk[6,0] + nuvk[1,6,0] >= -1
 nuvklogical1[2,3,0]: - mvk[2,0] - mvk[3,0] + nuvk[2,3,0] >= -1
 nuvklogical1[2,4,0]: - mvk[2,0] - mvk[4,0] + nuvk[2,4,0] >= -1
 nuvklogical1[2,5,0]: - mvk[2,0] - mvk[5,0] + nuvk[2,5,0] >= -1
 nuvklogical1[2,6,0]: - mvk[2,0] - mvk[6,0] + nuvk[2,6,0] >= -1
 nuvklogical1[3,4,0]: - mvk[3,0] - mvk[4,0] + nuvk[3,4,0] >= -1
 nuvklogical1[3,5,0]: - mvk[3,0] - mvk[5,0] + nuvk[3,5,0] >= -1
 nuvklogical1[3,6,0]: - mvk[3,0] - mvk[6,0] + nuvk[3,6,0] >= -1
 nuvklogical1[4,5,0]: - mvk[4,0] - mvk[5,0] + nuvk[4,5,0] >= -1
 nuvklogical1[4,6,0]: - mvk[4,0] - mvk[6,0] + nuvk[4,6,0] >= -1
 nuvklogical1[5,6,0]: - mvk[5,0] - mvk[6,0] + nuvk[5,6,0] >= -1
 nuvklogical2[0,1,0]: - mvk[0,0] + nuvk[0,1,0] <= 0
 nuvklogical2[0,2,0]: - mvk[0,0] + nuvk[0,2,0] <= 0
 nuvklogical2[0,3,0]: - mvk[0,0] + nuvk[0,3,0] <= 0
 nuvklogical2[0,4,0]: - mvk[0,0] + nuvk[0,4,0] <= 0
 nuvklogical2[0,5,0]: - mvk[0,0] + nuvk[0,5,0] <= 0
 nuvklogical2[0,6,0]: - mvk[0,0] + nuvk[0,6,0] <= 0
 nuvklogical2[1,2,0]: - mvk[1,0] + nuvk[1,2,0] <= 0
 nuvklogical2[1,3,0]: - mvk[1,0] + nuvk[1,3,0] <= 0
 nuvklogical2[1,4,0]: - mvk[1,0] + nuvk[1,4,0] <= 0
 nuvklogical2[1,5,0]: - mvk[1,0] + nuvk[1,5,0] <= 0
 nuvklogical2[1,6,0]: - mvk[1,0] + nuvk[1,6,0] <= 0
 nuvklogical2[2,3,0]: - mvk[2,0] + nuvk[2,3,0] <= 0
 nuvklogical2[2,4,0]: - mvk[2,0] + nuvk[2,4,0] <= 0
 nuvklogical2[2,5,0]: - mvk[2,0] + nuvk[2,5,0] <= 0
 nuvklogical2[2,6,0]: - mvk[2,0] + nuvk[2,6,0] <= 0
 nuvklogical2[3,4,0]: - mvk[3,0] + nuvk[3,4,0] <= 0
 nuvklogical2[3,5,0]: - mvk[3,0] + nuvk[3,5,0] <= 0
 nuvklogical2[3,6,0]: - mvk[3,0] + nuvk[3,6,0] <= 0
 nuvklogical2[4,5,0]: - mvk[4,0] + nuvk[4,5,0] <= 0
 nuvklogical2[4,6,0]: - mvk[4,0] + nuvk[4,6,0] <= 0
 nuvklogical2[5,6,0]: - mvk[5,0] + nuvk[5,6,0] <= 0
 nuvklogical3[0,1,0]: - mvk[1,0] + nuvk[0,1,0] <= 0
 nuvklogical3[0,2,0]: - mvk[2,0] + nuvk[0,2,0] <= 0
 nuvklogical3[0,3,0]: - mvk[3,0] + nuvk[0,3,0] <= 0
 nuvklogical3[0,4,0]: - mvk[4,0] + nuvk[0,4,0] <= 0
 nuvklogical3[0,5,0]: - mvk[5,0] + nuvk[0,5,0] <= 0
 nuvklogical3[0,6,0]: - mvk[6,0] + nuvk[0,6,0] <= 0
 nuvklogical3[1,2,0]: - mvk[2,0] + nuvk[1,2,0] <= 0
 nuvklogical3[1,3,0]: - mvk[3,0] + nuvk[1,3,0] <= 0
 nuvklogical3[1,4,0]: - mvk[4,0] + nuvk[1,4,0] <= 0
 nuvklogical3[1,5,0]: - mvk[5,0] + nuvk[1,5,0] <= 0
 nuvklogical3[1,6,0]: - mvk[6,0] + nuvk[1,6,0] <= 0
 nuvklogical3[2,3,0]: - mvk[3,0] + nuvk[2,3,0] <= 0
 nuvklogical3[2,4,0]: - mvk[4,0] + nuvk[2,4,0] <= 0
 nuvklogical3[2,5,0]: - mvk[5,0] + nuvk[2,5,0] <= 0
 nuvklogical3[2,6,0]: - mvk[6,0] + nuvk[2,6,0] <= 0
 nuvklogical3[3,4,0]: - mvk[4,0] + nuvk[3,4,0] <= 0
 nuvklogical3[3,5,0]: - mvk[5,0] + nuvk[3,5,0] <= 0
 nuvklogical3[3,6,0]: - mvk[6,0] + nuvk[3,6,0] <= 0
 nuvklogical3[4,5,0]: - mvk[5,0] + nuvk[4,5,0] <= 0
 nuvklogical3[4,6,0]: - mvk[6,0] + nuvk[4,6,0] <= 0
 nuvklogical3[5,6,0]: - mvk[6,0] + nuvk[5,6,0] <= 0
 Nuvlogical1[0,1]: - nuvk[0,1,0] + Nuv[0,1] = 0
 Nuvlogical1[0,2]: - nuvk[0,2,0] + Nuv[0,2] = 0
 Nuvlogical1[0,3]: - nuvk[0,3,0] + Nuv[0,3] = 0
 Nuvlogical1[0,4]: - nuvk[0,4,0] + Nuv[0,4] = 0
 Nuvlogical1[0,5]: - nuvk[0,5,0] + Nuv[0,5] = 0
 Nuvlogical1[0,6]: - nuvk[0,6,0] + Nuv[0,6] = 0
 Nuvlogical1[1,2]: - nuvk[1,2,0] + Nuv[1,2] = 0
 Nuvlogical1[1,3]: - nuvk[1,3,0] + Nuv[1,3] = 0
 Nuvlogical1[1,4]: - nuvk[1,4,0] + Nuv[1,4] = 0
 Nuvlogical1[1,5]: - nuvk[1,5,0] + Nuv[1,5] = 0
 Nuvlogical1[1,6]: - nuvk[1,6,0] + Nuv[1,6] = 0
 Nuvlogical1[2,3]: - nuvk[2,3,0] + Nuv[2,3] = 0
 Nuvlogical1[2,4]: - nuvk[2,4,0] + Nuv[2,4] = 0
 Nuvlogical1[2,5]: - nuvk[2,5,0] + Nuv[2,5] = 0
 Nuvlogical1[2,6]: - nuvk[2,6,0] + Nuv[2,6] = 0
 Nuvlogical1[3,4]: - nuvk[3,4,0] + Nuv[3,4] = 0
 Nuvlogical1[3,5]: - nuvk[3,5,0] + Nuv[3,5] = 0
 Nuvlogical1[3,6]: - nuvk[3,6,0] + Nuv[3,6] = 0
 Nuvlogical1[4,5]: - nuvk[4,5,0] + Nuv[4,5] = 0
 Nuvlogical1[4,6]: - nuvk[4,6,0] + Nuv[4,6] = 0
 Nuvlogical1[5,6]: - nuvk[5,6,0] + Nuv[5,6] = 0
 overlapxuv[0,1]: x[0] - x[1] - 99999 xuv[0,1] - 99999 yuv[0,1]
   - 99999 zuv[0,1] + 4 r[0,0] + 1.5 r[0,1] + 4 r[0,2] + 1.5 r[0,3]
   + 99999 Nuv[0,1] <= 99998
 overlapxuv[0,2]: x[0] - x[2] - 99999 xuv[0,2] - 99999 yuv[0,2]
   - 99999 zuv[0,2] + 4 r[0,0] + 1.5 r[0,1] + 4 r[0,2] + 1.5 r[0,3]
   + 99999 Nuv[0,2] <= 99998
 overlapxuv[0,3]: x[0] - x[3] - 99999 xuv[0,3] - 99999 yuv[0,3]
   - 99999 zuv[0,3] + 4 r[0,0] + 1.5 r[0,1] + 4 r[0,2] + 1.5 r[0,3]
   + 99999 Nuv[0,3] <= 99998
 overlapxuv[0,4]: x[0] - x[4] - 99999 xuv[0,4] - 99999 yuv[0,4]
   - 99999 zuv[0,4] + 4 r[0,0] + 1.5 r[0,1] + 4 r[0,2] + 1.5 r[0,3]
   + 99999 Nuv[0,4] <= 99998
 overlapxuv[0,5]: x[0] - x[5] - 99999 xuv[0,5] - 99999 yuv[0,5]
   - 99999 zuv[0,5] + 4 r[0,0] + 1.5 r[0,1] + 4 r[0,2] + 1.5 r[0,3]
   + 99999 Nuv[0,5] <= 99998
 overlapxuv[0,6]: x[0] - x[6] - 99999 xuv[0,6] - 99999 yuv[0,6]
   - 99999 zuv[0,6] + 4 r[0,0] + 1.5 r[0,1] + 4 r[0,2] + 1.5 r[0,3]
   + 99999 Nuv[0,6] <= 99998
 overlapxuv[1,2]: x[1] - x[2] - 99999 xuv[1,2] - 99999 yuv[1,2]
   - 99999 zuv[1,2] + 4 r[1,0] + 1.5 r[1,1] + 4 r[1,2] + 1.5 r[1,3]
   + 99999 Nuv[1,2] <= 99998
 overlapxuv[1,3]: x[1] - x[3] - 99999 xuv[1,3] - 99999 yuv[1,3]
   - 99999 zuv[1,3] + 4 r[1,0] + 1.5 r[1,1] + 4 r[1,2] + 1.5 r[1,3]
   + 99999 Nuv[1,3] <= 99998
 overlapxuv[1,4]: x[1] - x[4] - 99999 xuv[1,4] - 99999 yuv[1,4]
   - 99999 zuv[1,4] + 4 r[1,0] + 1.5 r[1,1] + 4 r[1,2] + 1.5 r[1,3]
   + 99999 Nuv[1,4] <= 99998
 overlapxuv[1,5]: x[1] - x[5] - 99999 xuv[1,5] - 99999 yuv[1,5]
   - 99999 zuv[1,5] + 4 r[1,0] + 1.5 r[1,1] + 4 r[1,2] + 1.5 r[1,3]
   + 99999 Nuv[1,5] <= 99998
 overlapxuv[1,6]: x[1] - x[6] - 99999 xuv[1,6] - 99999 yuv[1,6]
   - 99999 zuv[1,6] + 4 r[1,0] + 1.5 r[1,1] + 4 r[1,2] + 1.5 r[1,3]
   + 99999 Nuv[1,6] <= 99998
 overlapxuv[2,3]: x[2] - x[3] - 99999 xuv[2,3] - 99999 yuv[2,3]
   - 99999 zuv[2,3] + r[2,0] + r[2,1] + r[2,2] + r[2,3] + 99999 Nuv[2,3]
   <= 99998
 overlapxuv[2,4]: x[2] - x[4] - 99999 xuv[2,4] - 99999 yuv[2,4]
   - 99999 zuv[2,4] + r[2,0] + r[2,1] + r[2,2] + r[2,3] + 99999 Nuv[2,4]
   <= 99998
 overlapxuv[2,5]: x[2] - x[5] - 99999 xuv[2,5] - 99999 yuv[2,5]
   - 99999 zuv[2,5] + r[2,0] + r[2,1] + r[2,2] + r[2,3] + 99999 Nuv[2,5]
   <= 99998
 overlapxuv[2,6]: x[2] - x[6] - 99999 xuv[2,6] - 99999 yuv[2,6]
   - 99999 zuv[2,6] + r[2,0] + r[2,1] + r[2,2] + r[2,3] + 99999 Nuv[2,6]
   <= 99998
 overlapxuv[3,4]: x[3] - x[4] - 99999 xuv[3,4] - 99999 yuv[3,4]
   - 99999 zuv[3,4] + r[3,0] + r[3,1] + r[3,2] + r[3,3] + 99999 Nuv[3,4]
   <= 99998
 overlapxuv[3,5]: x[3] - x[5] - 99999 xuv[3,5] - 99999 yuv[3,5]
   - 99999 zuv[3,5] + r[3,0] + r[3,1] + r[3,2] + r[3,3] + 99999 Nuv[3,5]
   <= 99998
 overlapxuv[3,6]: x[3] - x[6] - 99999 xuv[3,6] - 99999 yuv[3,6]
   - 99999 zuv[3,6] + r[3,0] + r[3,1] + r[3,2] + r[3,3] + 99999 Nuv[3,6]
   <= 99998
 overlapxuv[4,5]: x[4] - x[5] - 99999 xuv[4,5] - 99999 yuv[4,5]
   - 99999 zuv[4,5] + 1.6 r[4,0] + 1.6 r[4,1] + 1.6 r[4,2] + 1.6 r[4,3]
   + 99999 Nuv[4,5] <= 99998
 overlapxuv[4,6]: x[4] - x[6] - 99999 xuv[4,6] - 99999 yuv[4,6]
   - 99999 zuv[4,6] + 1.6 r[4,0] + 1.6 r[4,1] + 1.6 r[4,2] + 1.6 r[4,3]
   + 99999 Nuv[4,6] <= 99998
 overlapxuv[5,6]: x[5] - x[6] - 99999 xuv[5,6] - 99999 yuv[5,6]
   - 99999 zuv[5,6] + 0.7 r[5,0] + 0.7 r[5,1] + 0.7 r[5,2] + 0.7 r[5,3]
   + 99999 Nuv[5,6] <= 99998
 overlapxvu[0,1]: - x[0] + x[1] + 99999 xuv[0,1] - 99999 yuv[0,1]
   - 99999 zuv[0,1] + 4 r[1,0] + 1.5 r[1,1] + 4 r[1,2] + 1.5 r[1,3]
   + 99999 Nuv[0,1] <= 199997
 overlapxvu[0,2]: - x[0] + x[2] + 99999 xuv[0,2] - 99999 yuv[0,2]
   - 99999 zuv[0,2] + r[2,0] + r[2,1] + r[2,2] + r[2,3] + 99999 Nuv[0,2]
   <= 199997
 overlapxvu[0,3]: - x[0] + x[3] + 99999 xuv[0,3] - 99999 yuv[0,3]
   - 99999 zuv[0,3] + r[3,0] + r[3,1] + r[3,2] + r[3,3] + 99999 Nuv[0,3]
   <= 199997
 overlapxvu[0,4]: - x[0] + x[4] + 99999 xuv[0,4] - 99999 yuv[0,4]
   - 99999 zuv[0,4] + 1.6 r[4,0] + 1.6 r[4,1] + 1.6 r[4,2] + 1.6 r[4,3]
   + 99999 Nuv[0,4] <= 199997
 overlapxvu[0,5]: - x[0] + x[5] + 99999 xuv[0,5] - 99999 yuv[0,5]
   - 99999 zuv[0,5] + 0.7 r[5,0] + 0.7 r[5,1] + 0.7 r[5,2] + 0.7 r[5,3]
   + 99999 Nuv[0,5] <= 199997
 overlapxvu[0,6]: - x[0] + x[6] + 99999 xuv[0,6] - 99999 yuv[0,6]
   - 99999 zuv[0,6] + 0.7 r[6,0] + 0.7 r[6,1] + 0.7 r[6,2] + 0.7 r[6,3]
   + 99999 Nuv[0,6] <= 199997
 overlapxvu[1,2]: - x[1] + x[2] + 99999 xuv[1,2] - 99999 yuv[1,2]
   - 99999 zuv[1,2] + r[2,0] + r[2,1] + r[2,2] + r[2,3] + 99999 Nuv[1,2]
   <= 199997
 overlapxvu[1,3]: - x[1] + x[3] + 99999 xuv[1,3] - 99999 yuv[1,3]
   - 99999 zuv[1,3] + r[3,0] + r[3,1] + r[3,2] + r[3,3] + 99999 Nuv[1,3]
   <= 199997
 overlapxvu[1,4]: - x[1] + x[4] + 99999 xuv[1,4] - 99999 yuv[1,4]
   - 99999 zuv[1,4] + 1.6 r[4,0] + 1.6 r[4,1] + 1.6 r[4,2] + 1.6 r[4,3]
   + 99999 Nuv[1,4] <= 199997
 overlapxvu[1,5]: - x[1] + x[5] + 99999 xuv[1,5] - 99999 yuv[1,5]
   - 99999 zuv[1,5] + 0.7 r[5,0] + 0.7 r[5,1] + 0.7 r[5,2] + 0.7 r[5,3]
   + 99999 Nuv[1,5] <= 199997
 overlapxvu[1,6]: - x[1] + x[6] + 99999 xuv[1,6] - 99999 yuv[1,6]
   - 99999 zuv[1,6] + 0.7 r[6,0] + 0.7 r[6,1] + 0.7 r[6,2] + 0.7 r[6,3]
   + 99999 Nuv[1,6] <= 199997
 overlapxvu[2,3]: - x[2] + x[3] + 99999 xuv[2,3] - 99999 yuv[2,3]
   - 99999 zuv[2,3] + r[3,0] + r[3,1] + r[3,2] + r[3,3] + 99999 Nuv[2,3]
   <= 199997
 overlapxvu[2,4]: - x[2] + x[4] + 99999 xuv[2,4] - 99999 yuv[2,4]
   - 99999 zuv[2,4] + 1.6 r[4,0] + 1.6 r[4,1] + 1.6 r[4,2] + 1.6 r[4,3]
   + 99999 Nuv[2,4] <= 199997
 overlapxvu[2,5]: - x[2] + x[5] + 99999 xuv[2,5] - 99999 yuv[2,5]
   - 99999 zuv[2,5] + 0.7 r[5,0] + 0.7 r[5,1] + 0.7 r[5,2] + 0.7 r[5,3]
   + 99999 Nuv[2,5] <= 199997
 overlapxvu[2,6]: - x[2] + x[6] + 99999 xuv[2,6] - 99999 yuv[2,6]
   - 99999 zuv[2,6] + 0.7 r[6,0] + 0.7 r[6,1] + 0.7 r[6,2] + 0.7 r[6,3]
   + 99999 Nuv[2,6] <= 199997
 overlapxvu[3,4]: - x[3] + x[4] + 99999 xuv[3,4] - 99999 yuv[3,4]
   - 99999 zuv[3,4] + 1.6 r[4,0] + 1.6 r[4,1] + 1.6 r[4,2] + 1.6 r[4,3]
   + 99999 Nuv[3,4] <= 199997
 overlapxvu[3,5]: - x[3] + x[5] + 99999 xuv[3,5] - 99999 yuv[3,5]
   - 99999 zuv[3,5] + 0.7 r[5,0] + 0.7 r[5,1] + 0.7 r[5,2] + 0.7 r[5,3]
   + 99999 Nuv[3,5] <= 199997
 overlapxvu[3,6]: - x[3] + x[6] + 99999 xuv[3,6] - 99999 yuv[3,6]
   - 99999 zuv[3,6] + 0.7 r[6,0] + 0.7 r[6,1] + 0.7 r[6,2] + 0.7 r[6,3]
   + 99999 Nuv[3,6] <= 199997
 overlapxvu[4,5]: - x[4] + x[5] + 99999 xuv[4,5] - 99999 yuv[4,5]
   - 99999 zuv[4,5] + 0.7 r[5,0] + 0.7 r[5,1] + 0.7 r[5,2] + 0.7 r[5,3]
   + 99999 Nuv[4,5] <= 199997
 overlapxvu[4,6]: - x[4] + x[6] + 99999 xuv[4,6] - 99999 yuv[4,6]
   - 99999 zuv[4,6] + 0.7 r[6,0] + 0.7 r[6,1] + 0.7 r[6,2] + 0.7 r[6,3]
   + 99999 Nuv[4,6] <= 199997
 overlapxvu[5,6]: - x[5] + x[6] + 99999 xuv[5,6] - 99999 yuv[5,6]
   - 99999 zuv[5,6] + 0.7 r[6,0] + 0.7 r[6,1] + 0.7 r[6,2] + 0.7 r[6,3]
   + 99999 Nuv[5,6] <= 199997
 overlapyuv[0,1]: y[0] - y[1] - 99999 xuv[0,1] + 99999 yuv[0,1]
   - 99999 zuv[0,1] + 1.5 r[0,0] + 4 r[0,1] + 1.5 r[0,2] + 4 r[0,3]
   + 99999 Nuv[0,1] <= 199997
 overlapyuv[0,2]: y[0] - y[2] - 99999 xuv[0,2] + 99999 yuv[0,2]
   - 99999 zuv[0,2] + 1.5 r[0,0] + 4 r[0,1] + 1.5 r[0,2] + 4 r[0,3]
   + 99999 Nuv[0,2] <= 199997
 overlapyuv[0,3]: y[0] - y[3] - 99999 xuv[0,3] + 99999 yuv[0,3]
   - 99999 zuv[0,3] + 1.5 r[0,0] + 4 r[0,1] + 1.5 r[0,2] + 4 r[0,3]
   + 99999 Nuv[0,3] <= 199997
 overlapyuv[0,4]: y[0] - y[4] - 99999 xuv[0,4] + 99999 yuv[0,4]
   - 99999 zuv[0,4] + 1.5 r[0,0] + 4 r[0,1] + 1.5 r[0,2] + 4 r[0,3]
   + 99999 Nuv[0,4] <= 199997
 overlapyuv[0,5]: y[0] - y[5] - 99999 xuv[0,5] + 99999 yuv[0,5]
   - 99999 zuv[0,5] + 1.5 r[0,0] + 4 r[0,1] + 1.5 r[0,2] + 4 r[0,3]
   + 99999 Nuv[0,5] <= 199997
 overlapyuv[0,6]: y[0] - y[6] - 99999 xuv[0,6] + 99999 yuv[0,6]
   - 99999 zuv[0,6] + 1.5 r[0,0] + 4 r[0,1] + 1.5 r[0,2] + 4 r[0,3]
   + 99999 Nuv[0,6] <= 199997
 overlapyuv[1,2]: y[1] - y[2] - 99999 xuv[1,2] + 99999 yuv[1,2]
   - 99999 zuv[1,2] + 1.5 r[1,0] + 4 r[1,1] + 1.5 r[1,2] + 4 r[1,3]
   + 99999 Nuv[1,2] <= 199997
 overlapyuv[1,3]: y[1] - y[3] - 99999 xuv[1,3] + 99999 yuv[1,3]
   - 99999 zuv[1,3] + 1.5 r[1,0] + 4 r[1,1] + 1.5 r[1,2] + 4 r[1,3]
   + 99999 Nuv[1,3] <= 199997
 overlapyuv[1,4]: y[1] - y[4] - 99999 xuv[1,4] + 99999 yuv[1,4]
   - 99999 zuv[1,4] + 1.5 r[1,0] + 4 r[1,1] + 1.5 r[1,2] + 4 r[1,3]
   + 99999 Nuv[1,4] <= 199997
 overlapyuv[1,5]: y[1] - y[5] - 99999 xuv[1,5] + 99999 yuv[1,5]
   - 99999 zuv[1,5] + 1.5 r[1,0] + 4 r[1,1] + 1.5 r[1,2] + 4 r[1,3]
   + 99999 Nuv[1,5] <= 199997
 overlapyuv[1,6]: y[1] - y[6] - 99999 xuv[1,6] + 99999 yuv[1,6]
   - 99999 zuv[1,6] + 1.5 r[1,0] + 4 r[1,1] + 1.5 r[1,2] + 4 r[1,3]
   + 99999 Nuv[1,6] <= 199997
 overlapyuv[2,3]: y[2] - y[3] - 99999 xuv[2,3] + 99999 yuv[2,3]
   - 99999 zuv[2,3] + r[2,0] + r[2,1] + r[2,2] + r[2,3] + 99999 Nuv[2,3]
   <= 199997
 overlapyuv[2,4]: y[2] - y[4] - 99999 xuv[2,4] + 99999 yuv[2,4]
   - 99999 zuv[2,4] + r[2,0] + r[2,1] + r[2,2] + r[2,3] + 99999 Nuv[2,4]
   <= 199997
 overlapyuv[2,5]: y[2] - y[5] - 99999 xuv[2,5] + 99999 yuv[2,5]
   - 99999 zuv[2,5] + r[2,0] + r[2,1] + r[2,2] + r[2,3] + 99999 Nuv[2,5]
   <= 199997
 overlapyuv[2,6]: y[2] - y[6] - 99999 xuv[2,6] + 99999 yuv[2,6]
   - 99999 zuv[2,6] + r[2,0] + r[2,1] + r[2,2] + r[2,3] + 99999 Nuv[2,6]
   <= 199997
 overlapyuv[3,4]: y[3] - y[4] - 99999 xuv[3,4] + 99999 yuv[3,4]
   - 99999 zuv[3,4] + r[3,0] + r[3,1] + r[3,2] + r[3,3] + 99999 Nuv[3,4]
   <= 199997
 overlapyuv[3,5]: y[3] - y[5] - 99999 xuv[3,5] + 99999 yuv[3,5]
   - 99999 zuv[3,5] + r[3,0] + r[3,1] + r[3,2] + r[3,3] + 99999 Nuv[3,5]
   <= 199997
 overlapyuv[3,6]: y[3] - y[6] - 99999 xuv[3,6] + 99999 yuv[3,6]
   - 99999 zuv[3,6] + r[3,0] + r[3,1] + r[3,2] + r[3,3] + 99999 Nuv[3,6]
   <= 199997
 overlapyuv[4,5]: y[4] - y[5] - 99999 xuv[4,5] + 99999 yuv[4,5]
   - 99999 zuv[4,5] + 1.6 r[4,0] + 1.6 r[4,1] + 1.6 r[4,2] + 1.6 r[4,3]
   + 99999 Nuv[4,5] <= 199997
 overlapyuv[4,6]: y[4] - y[6] - 99999 xuv[4,6] + 99999 yuv[4,6]
   - 99999 zuv[4,6] + 1.6 r[4,0] + 1.6 r[4,1] + 1.6 r[4,2] + 1.6 r[4,3]
   + 99999 Nuv[4,6] <= 199997
 overlapyuv[5,6]: y[5] - y[6] - 99999 xuv[5,6] + 99999 yuv[5,6]
   - 99999 zuv[5,6] + 0.7 r[5,0] + 0.7 r[5,1] + 0.7 r[5,2] + 0.7 r[5,3]
   + 99999 Nuv[5,6] <= 199997
 overlapyvu[0,1]: - y[0] + y[1] + 99999 xuv[0,1] + 99999 yuv[0,1]
   - 99999 zuv[0,1] + 1.5 r[1,0] + 4 r[1,1] + 1.5 r[1,2] + 4 r[1,3]
   + 99999 Nuv[0,1] <= 299996
 overlapyvu[0,2]: - y[0] + y[2] + 99999 xuv[0,2] + 99999 yuv[0,2]
   - 99999 zuv[0,2] + r[2,0] + r[2,1] + r[2,2] + r[2,3] + 99999 Nuv[0,2]
   <= 299996
 overlapyvu[0,3]: - y[0] + y[3] + 99999 xuv[0,3] + 99999 yuv[0,3]
   - 99999 zuv[0,3] + r[3,0] + r[3,1] + r[3,2] + r[3,3] + 99999 Nuv[0,3]
   <= 299996
 overlapyvu[0,4]: - y[0] + y[4] + 99999 xuv[0,4] + 99999 yuv[0,4]
   - 99999 zuv[0,4] + 1.6 r[4,0] + 1.6 r[4,1] + 1.6 r[4,2] + 1.6 r[4,3]
   + 99999 Nuv[0,4] <= 299996
 overlapyvu[0,5]: - y[0] + y[5] + 99999 xuv[0,5] + 99999 yuv[0,5]
   - 99999 zuv[0,5] + 0.7 r[5,0] + 0.7 r[5,1] + 0.7 r[5,2] + 0.7 r[5,3]
   + 99999 Nuv[0,5] <= 299996
 overlapyvu[0,6]: - y[0] + y[6] + 99999 xuv[0,6] + 99999 yuv[0,6]
   - 99999 zuv[0,6] + 0.7 r[6,0] + 0.7 r[6,1] + 0.7 r[6,2] + 0.7 r[6,3]
   + 99999 Nuv[0,6] <= 299996
 overlapyvu[1,2]: - y[1] + y[2] + 99999 xuv[1,2] + 99999 yuv[1,2]
   - 99999 zuv[1,2] + r[2,0] + r[2,1] + r[2,2] + r[2,3] + 99999 Nuv[1,2]
   <= 299996
 overlapyvu[1,3]: - y[1] + y[3] + 99999 xuv[1,3] + 99999 yuv[1,3]
   - 99999 zuv[1,3] + r[3,0] + r[3,1] + r[3,2] + r[3,3] + 99999 Nuv[1,3]
   <= 299996
 overlapyvu[1,4]: - y[1] + y[4] + 99999 xuv[1,4] + 99999 yuv[1,4]
   - 99999 zuv[1,4] + 1.6 r[4,0] + 1.6 r[4,1] + 1.6 r[4,2] + 1.6 r[4,3]
   + 99999 Nuv[1,4] <= 299996
 overlapyvu[1,5]: - y[1] + y[5] + 99999 xuv[1,5] + 99999 yuv[1,5]
   - 99999 zuv[1,5] + 0.7 r[5,0] + 0.7 r[5,1] + 0.7 r[5,2] + 0.7 r[5,3]
   + 99999 Nuv[1,5] <= 299996
 overlapyvu[1,6]: - y[1] + y[6] + 99999 xuv[1,6] + 99999 yuv[1,6]
   - 99999 zuv[1,6] + 0.7 r[6,0] + 0.7 r[6,1] + 0.7 r[6,2] + 0.7 r[6,3]
   + 99999 Nuv[1,6] <= 299996
 overlapyvu[2,3]: - y[2] + y[3] + 99999 xuv[2,3] + 99999 yuv[2,3]
   - 99999 zuv[2,3] + r[3,0] + r[3,1] + r[3,2] + r[3,3] + 99999 Nuv[2,3]
   <= 299996
 overlapyvu[2,4]: - y[2] + y[4] + 99999 xuv[2,4] + 99999 yuv[2,4]
   - 99999 zuv[2,4] + 1.6 r[4,0] + 1.6 r[4,1] + 1.6 r[4,2] + 1.6 r[4,3]
   + 99999 Nuv[2,4] <= 299996
 overlapyvu[2,5]: - y[2] + y[5] + 99999 xuv[2,5] + 99999 yuv[2,5]
   - 99999 zuv[2,5] + 0.7 r[5,0] + 0.7 r[5,1] + 0.7 r[5,2] + 0.7 r[5,3]
   + 99999 Nuv[2,5] <= 299996
 overlapyvu[2,6]: - y[2] + y[6] + 99999 xuv[2,6] + 99999 yuv[2,6]
   - 99999 zuv[2,6] + 0.7 r[6,0] + 0.7 r[6,1] + 0.7 r[6,2] + 0.7 r[6,3]
   + 99999 Nuv[2,6] <= 299996
 overlapyvu[3,4]: - y[3] + y[4] + 99999 xuv[3,4] + 99999 yuv[3,4]
   - 99999 zuv[3,4] + 1.6 r[4,0] + 1.6 r[4,1] + 1.6 r[4,2] + 1.6 r[4,3]
   + 99999 Nuv[3,4] <= 299996
 overlapyvu[3,5]: - y[3] + y[5] + 99999 xuv[3,5] + 99999 yuv[3,5]
   - 99999 zuv[3,5] + 0.7 r[5,0] + 0.7 r[5,1] + 0.7 r[5,2] + 0.7 r[5,3]
   + 99999 Nuv[3,5] <= 299996
 overlapyvu[3,6]: - y[3] + y[6] + 99999 xuv[3,6] + 99999 yuv[3,6]
   - 99999 zuv[3,6] + 0.7 r[6,0] + 0.7 r[6,1] + 0.7 r[6,2] + 0.7 r[6,3]
   + 99999 Nuv[3,6] <= 299996
 overlapyvu[4,5]: - y[4] + y[5] + 99999 xuv[4,5] + 99999 yuv[4,5]
   - 99999 zuv[4,5] + 0.7 r[5,0] + 0.7 r[5,1] + 0.7 r[5,2] + 0.7 r[5,3]
   + 99999 Nuv[4,5] <= 299996
 overlapyvu[4,6]: - y[4] + y[6] + 99999 xuv[4,6] + 99999 yuv[4,6]
   - 99999 zuv[4,6] + 0.7 r[6,0] + 0.7 r[6,1] + 0.7 r[6,2] + 0.7 r[6,3]
   + 99999 Nuv[4,6] <= 299996
 overlapyvu[5,6]: - y[5] + y[6] + 99999 xuv[5,6] + 99999 yuv[5,6]
   - 99999 zuv[5,6] + 0.7 r[6,0] + 0.7 r[6,1] + 0.7 r[6,2] + 0.7 r[6,3]
   + 99999 Nuv[5,6] <= 299996
 overlapzuv[0,1]: z[0] - z[1] + 99999 xuv[0,1] - 99999 yuv[0,1]
   + 99999 zuv[0,1] <= 199995.5
 overlapzuv[0,2]: z[0] - z[2] + 99999 xuv[0,2] - 99999 yuv[0,2]
   + 99999 zuv[0,2] <= 199995.5
 overlapzuv[0,3]: z[0] - z[3] + 99999 xuv[0,3] - 99999 yuv[0,3]
   + 99999 zuv[0,3] <= 199995.5
 overlapzuv[0,4]: z[0] - z[4] + 99999 xuv[0,4] - 99999 yuv[0,4]
   + 99999 zuv[0,4] <= 199995.5
 overlapzuv[0,5]: z[0] - z[5] + 99999 xuv[0,5] - 99999 yuv[0,5]
   + 99999 zuv[0,5] <= 199995.5
 overlapzuv[0,6]: z[0] - z[6] + 99999 xuv[0,6] - 99999 yuv[0,6]
   + 99999 zuv[0,6] <= 199995.5
 overlapzuv[1,2]: z[1] - z[2] + 99999 xuv[1,2] - 99999 yuv[1,2]
   + 99999 zuv[1,2] <= 199995.5
 overlapzuv[1,3]: z[1] - z[3] + 99999 xuv[1,3] - 99999 yuv[1,3]
   + 99999 zuv[1,3] <= 199995.5
 overlapzuv[1,4]: z[1] - z[4] + 99999 xuv[1,4] - 99999 yuv[1,4]
   + 99999 zuv[1,4] <= 199995.5
 overlapzuv[1,5]: z[1] - z[5] + 99999 xuv[1,5] - 99999 yuv[1,5]
   + 99999 zuv[1,5] <= 199995.5
 overlapzuv[1,6]: z[1] - z[6] + 99999 xuv[1,6] - 99999 yuv[1,6]
   + 99999 zuv[1,6] <= 199995.5
 overlapzuv[2,3]: z[2] - z[3] + 99999 xuv[2,3] - 99999 yuv[2,3]
   + 99999 zuv[2,3] <= 199995.8
 overlapzuv[2,4]: z[2] - z[4] + 99999 xuv[2,4] - 99999 yuv[2,4]
   + 99999 zuv[2,4] <= 199995.8
 overlapzuv[2,5]: z[2] - z[5] + 99999 xuv[2,5] - 99999 yuv[2,5]
   + 99999 zuv[2,5] <= 199995.8
 overlapzuv[2,6]: z[2] - z[6] + 99999 xuv[2,6] - 99999 yuv[2,6]
   + 99999 zuv[2,6] <= 199995.8
 overlapzuv[3,4]: z[3] - z[4] + 99999 xuv[3,4] - 99999 yuv[3,4]
   + 99999 zuv[3,4] <= 199995.8
 overlapzuv[3,5]: z[3] - z[5] + 99999 xuv[3,5] - 99999 yuv[3,5]
   + 99999 zuv[3,5] <= 199995.8
 overlapzuv[3,6]: z[3] - z[6] + 99999 xuv[3,6] - 99999 yuv[3,6]
   + 99999 zuv[3,6] <= 199995.8
 overlapzuv[4,5]: z[4] - z[5] + 99999 xuv[4,5] - 99999 yuv[4,5]
   + 99999 zuv[4,5] <= 199995.8
 overlapzuv[4,6]: z[4] - z[6] + 99999 xuv[4,6] - 99999 yuv[4,6]
   + 99999 zuv[4,6] <= 199995.8
 overlapzuv[5,6]: z[5] - z[6] + 99999 xuv[5,6] - 99999 yuv[5,6]
   + 99999 zuv[5,6] <= 199996
 overlapzvu[0,1]: - z[0] + z[1] - 99999 xuv[0,1] + 99999 yuv[0,1]
   + 99999 zuv[0,1] <= 199995.5
 overlapzvu[0,2]: - z[0] + z[2] - 99999 xuv[0,2] + 99999 yuv[0,2]
   + 99999 zuv[0,2] <= 199995.8
 overlapzvu[0,3]: - z[0] + z[3] - 99999 xuv[0,3] + 99999 yuv[0,3]
   + 99999 zuv[0,3] <= 199995.8
 overlapzvu[0,4]: - z[0] + z[4] - 99999 xuv[0,4] + 99999 yuv[0,4]
   + 99999 zuv[0,4] <= 199995.8
 overlapzvu[0,5]: - z[0] + z[5] - 99999 xuv[0,5] + 99999 yuv[0,5]
   + 99999 zuv[0,5] <= 199996
 overlapzvu[0,6]: - z[0] + z[6] - 99999 xuv[0,6] + 99999 yuv[0,6]
   + 99999 zuv[0,6] <= 199996
 overlapzvu[1,2]: - z[1] + z[2] - 99999 xuv[1,2] + 99999 yuv[1,2]
   + 99999 zuv[1,2] <= 199995.8
 overlapzvu[1,3]: - z[1] + z[3] - 99999 xuv[1,3] + 99999 yuv[1,3]
   + 99999 zuv[1,3] <= 199995.8
 overlapzvu[1,4]: - z[1] + z[4] - 99999 xuv[1,4] + 99999 yuv[1,4]
   + 99999 zuv[1,4] <= 199995.8
 overlapzvu[1,5]: - z[1] + z[5] - 99999 xuv[1,5] + 99999 yuv[1,5]
   + 99999 zuv[1,5] <= 199996
 overlapzvu[1,6]: - z[1] + z[6] - 99999 xuv[1,6] + 99999 yuv[1,6]
   + 99999 zuv[1,6] <= 199996
 overlapzvu[2,3]: - z[2] + z[3] - 99999 xuv[2,3] + 99999 yuv[2,3]
   + 99999 zuv[2,3] <= 199995.8
 overlapzvu[2,4]: - z[2] + z[4] - 99999 xuv[2,4] + 99999 yuv[2,4]
   + 99999 zuv[2,4] <= 199995.8
 overlapzvu[2,5]: - z[2] + z[5] - 99999 xuv[2,5] + 99999 yuv[2,5]
   + 99999 zuv[2,5] <= 199996
 overlapzvu[2,6]: - z[2] + z[6] - 99999 xuv[2,6] + 99999 yuv[2,6]
   + 99999 zuv[2,6] <= 199996
 overlapzvu[3,4]: - z[3] + z[4] - 99999 xuv[3,4] + 99999 yuv[3,4]
   + 99999 zuv[3,4] <= 199995.8
 overlapzvu[3,5]: - z[3] + z[5] - 99999 xuv[3,5] + 99999 yuv[3,5]
   + 99999 zuv[3,5] <= 199996
 overlapzvu[3,6]: - z[3] + z[6] - 99999 xuv[3,6] + 99999 yuv[3,6]
   + 99999 zuv[3,6] <= 199996
 overlapzvu[4,5]: - z[4] + z[5] - 99999 xuv[4,5] + 99999 yuv[4,5]
   + 99999 zuv[4,5] <= 199996
 overlapzvu[4,6]: - z[4] + z[6] - 99999 xuv[4,6] + 99999 yuv[4,6]
   + 99999 zuv[4,6] <= 199996
 overlapzvu[5,6]: - z[5] + z[6] - 99999 xuv[5,6] + 99999 yuv[5,6]
   + 99999 zuv[5,6] <= 199996
 eight_to_six1[0,1]: xuv[0,1] + yuv[0,1] + zuv[0,1] <= 2
 eight_to_six1[0,2]: xuv[0,2] + yuv[0,2] + zuv[0,2] <= 2
 eight_to_six1[0,3]: xuv[0,3] + yuv[0,3] + zuv[0,3] <= 2
 eight_to_six1[0,4]: xuv[0,4] + yuv[0,4] + zuv[0,4] <= 2
 eight_to_six1[0,5]: xuv[0,5] + yuv[0,5] + zuv[0,5] <= 2
 eight_to_six1[0,6]: xuv[0,6] + yuv[0,6] + zuv[0,6] <= 2
 eight_to_six1[1,2]: xuv[1,2] + yuv[1,2] + zuv[1,2] <= 2
 eight_to_six1[1,3]: xuv[1,3] + yuv[1,3] + zuv[1,3] <= 2
 eight_to_six1[1,4]: xuv[1,4] + yuv[1,4] + zuv[1,4] <= 2
 eight_to_six1[1,5]: xuv[1,5] + yuv[1,5] + zuv[1,5] <= 2
 eight_to_six1[1,6]: xuv[1,6] + yuv[1,6] + zuv[1,6] <= 2
 eight_to_six1[2,3]: xuv[2,3] + yuv[2,3] + zuv[2,3] <= 2
 eight_to_six1[2,4]: xuv[2,4] + yuv[2,4] + zuv[2,4] <= 2
 eight_to_six1[2,5]: xuv[2,5] + yuv[2,5] + zuv[2,5] <= 2
 eight_to_six1[2,6]: xuv[2,6] + yuv[2,6] + zuv[2,6] <= 2
 eight_to_six1[3,4]: xuv[3,4] + yuv[3,4] + zuv[3,4] <= 2
 eight_to_six1[3,5]: xuv[3,5] + yuv[3,5] + zuv[3,5] <= 2
 eight_to_six1[3,6]: xuv[3,6] + yuv[3,6] + zuv[3,6] <= 2
 eight_to_six1[4,5]: xuv[4,5] + yuv[4,5] + zuv[4,5] <= 2
 eight_to_six1[4,6]: xuv[4,6] + yuv[4,6] + zuv[4,6] <= 2
 eight_to_six1[5,6]: xuv[5,6] + yuv[5,6] + zuv[5,6] <= 2
 eight_to_six2[0,1]: - xuv[0,1] - yuv[0,1] + 99998 zuv[0,1] <= 99997
 eight_to_six2[0,2]: - xuv[0,2] - yuv[0,2] + 99998 zuv[0,2] <= 99997
 eight_to_six2[0,3]: - xuv[0,3] - yuv[0,3] + 99998 zuv[0,3] <= 99997
 eight_to_six2[0,4]: - xuv[0,4] - yuv[0,4] + 99998 zuv[0,4] <= 99997
 eight_to_six2[0,5]: - xuv[0,5] - yuv[0,5] + 99998 zuv[0,5] <= 99997
 eight_to_six2[0,6]: - xuv[0,6] - yuv[0,6] + 99998 zuv[0,6] <= 99997
 eight_to_six2[1,2]: - xuv[1,2] - yuv[1,2] + 99998 zuv[1,2] <= 99997
 eight_to_six2[1,3]: - xuv[1,3] - yuv[1,3] + 99998 zuv[1,3] <= 99997
 eight_to_six2[1,4]: - xuv[1,4] - yuv[1,4] + 99998 zuv[1,4] <= 99997
 eight_to_six2[1,5]: - xuv[1,5] - yuv[1,5] + 99998 zuv[1,5] <= 99997
 eight_to_six2[1,6]: - xuv[1,6] - yuv[1,6] + 99998 zuv[1,6] <= 99997
 eight_to_six2[2,3]: - xuv[2,3] - yuv[2,3] + 99998 zuv[2,3] <= 99997
 eight_to_six2[2,4]: - xuv[2,4] - yuv[2,4] + 99998 zuv[2,4] <= 99997
 eight_to_six2[2,5]: - xuv[2,5] - yuv[2,5] + 99998 zuv[2,5] <= 99997
 eight_to_six2[2,6]: - xuv[2,6] - yuv[2,6] + 99998 zuv[2,6] <= 99997
 eight_to_six2[3,4]: - xuv[3,4] - yuv[3,4] + 99998 zuv[3,4] <= 99997
 eight_to_six2[3,5]: - xuv[3,5] - yuv[3,5] + 99998 zuv[3,5] <= 99997
 eight_to_six2[3,6]: - xuv[3,6] - yuv[3,6] + 99998 zuv[3,6] <= 99997
 eight_to_six2[4,5]: - xuv[4,5] - yuv[4,5] + 99998 zuv[4,5] <= 99997
 eight_to_six2[4,6]: - xuv[4,6] - yuv[4,6] + 99998 zuv[4,6] <= 99997
 eight_to_six2[5,6]: - xuv[5,6] - yuv[5,6] + 99998 zuv[5,6] <= 99997
 rectRij[0,1,0,1,0.0,-0.75,0.2,0.0,0.75,1]: x[0] - x[1] - Rij[0,1,0]
   + 3 r[0,0] + 0.75 r[0,1] + r[0,2] + 0.75 r[0,3] - 2.2 r[1,0]
   - 0.75 r[1,1] - 1.8 r[1,2] - 0.75 r[1,3] <= 0
 rectRij[1,2,0,1,0.0,-0.75,0.0,0.5,0.6,1]: x[1] - x[2] - Rij[1,2,0]
   + 3 r[1,0] + 0.75 r[1,1] + r[1,2] + 0.75 r[1,3] - 0.5 r[2,0]
   - 0.5 r[2,2] - r[2,3] <= 0
 rectRij[1,3,0,1,0.0,-0.75,0.0,0.5,0.6,1]: x[1] - x[3] - Rij[1,3,0]
   + 3 r[1,0] + 0.75 r[1,1] + r[1,2] + 0.75 r[1,3] - 0.5 r[3,0]
   - 0.5 r[3,2] - r[3,3] <= 0
 rectRij[2,3,0,0,0.5,-0.6,0.0,0.5,0.6,1]: x[2] - x[3] - Rij[2,3,0]
   + 0.5 r[2,0] + 0.5 r[2,2] + r[2,3] - 0.5 r[3,0] - 0.5 r[3,2] - r[3,3]
   <= 0
 rectRij[2,4,0,0,0.5,-0.6,0.0,0.8,0.6,1]: x[2] - x[4] - Rij[2,4,0]
   + 0.5 r[2,0] + 0.5 r[2,2] + r[2,3] - 0.8 r[4,0] - 0.8 r[4,2]
   - 1.6 r[4,3] <= 0
 rectRij[3,4,0,0,0.5,-0.6,0.0,0.8,0.6,1]: x[3] - x[4] - Rij[3,4,0]
   + 0.5 r[3,0] + 0.5 r[3,2] + r[3,3] - 0.8 r[4,0] - 0.8 r[4,2]
   - 1.6 r[4,3] <= 0
 rectRij[4,5,0,0,0.8,-0.6,0.0,-0.35,0.3,1]: x[4] - x[5] - Rij[4,5,0]
   + 0.8 r[4,0] + 0.8 r[4,2] + 1.6 r[4,3] - 0.35 r[5,0] - 0.7 r[5,1]
   - 0.35 r[5,2] <= 0
 rectRij[4,6,0,0,0.8,-0.6,0.0,-0.35,0.3,1]: x[4] - x[6] - Rij[4,6,0]
   + 0.8 r[4,0] + 0.8 r[4,2] + 1.6 r[4,3] - 0.35 r[6,0] - 0.7 r[6,1]
   - 0.35 r[6,2] <= 0
 rectRij[5,0,0,0,-0.35,-0.3,0.2,0.0,-0.75,1]: - x[0] + x[5] - Rij[5,0,0]
   - 2.2 r[0,0] - 0.75 r[0,1] - 1.8 r[0,2] - 0.75 r[0,3] + 0.35 r[5,0]
   + 0.7 r[5,1] + 0.35 r[5,2] <= 0
 rectRij[6,0,0,0,-0.35,-0.3,0.2,0.0,0.75,1]: - x[0] + x[6] - Rij[6,0,0]
   - 2.2 r[0,0] - 0.75 r[0,1] - 1.8 r[0,2] - 0.75 r[0,3] + 0.35 r[6,0]
   + 0.7 r[6,1] + 0.35 r[6,2] <= 0
 rectRji[0,1,0,1,0.0,-0.75,0.2,0.0,0.75,1]: - x[0] + x[1] - Rij[0,1,0]
   - 3 r[0,0] - 0.75 r[0,1] - r[0,2] - 0.75 r[0,3] + 2.2 r[1,0]
   + 0.75 r[1,1] + 1.8 r[1,2] + 0.75 r[1,3] <= 0
 rectRji[1,2,0,1,0.0,-0.75,0.0,0.5,0.6,1]: - x[1] + x[2] - Rij[1,2,0]
   - 3 r[1,0] - 0.75 r[1,1] - r[1,2] - 0.75 r[1,3] + 0.5 r[2,0]
   + 0.5 r[2,2] + r[2,3] <= 0
 rectRji[1,3,0,1,0.0,-0.75,0.0,0.5,0.6,1]: - x[1] + x[3] - Rij[1,3,0]
   - 3 r[1,0] - 0.75 r[1,1] - r[1,2] - 0.75 r[1,3] + 0.5 r[3,0]
   + 0.5 r[3,2] + r[3,3] <= 0
 rectRji[2,3,0,0,0.5,-0.6,0.0,0.5,0.6,1]: - x[2] + x[3] - Rij[2,3,0]
   - 0.5 r[2,0] - 0.5 r[2,2] - r[2,3] + 0.5 r[3,0] + 0.5 r[3,2] + r[3,3]
   <= 0
 rectRji[2,4,0,0,0.5,-0.6,0.0,0.8,0.6,1]: - x[2] + x[4] - Rij[2,4,0]
   - 0.5 r[2,0] - 0.5 r[2,2] - r[2,3] + 0.8 r[4,0] + 0.8 r[4,2]
   + 1.6 r[4,3] <= 0
 rectRji[3,4,0,0,0.5,-0.6,0.0,0.8,0.6,1]: - x[3] + x[4] - Rij[3,4,0]
   - 0.5 r[3,0] - 0.5 r[3,2] - r[3,3] + 0.8 r[4,0] + 0.8 r[4,2]
   + 1.6 r[4,3] <= 0
 rectRji[4,5,0,0,0.8,-0.6,0.0,-0.35,0.3,1]: - x[4] + x[5] - Rij[4,5,0]
   - 0.8 r[4,0] - 0.8 r[4,2] - 1.6 r[4,3] + 0.35 r[5,0] + 0.7 r[5,1]
   + 0.35 r[5,2] <= 0
 rectRji[4,6,0,0,0.8,-0.6,0.0,-0.35,0.3,1]: - x[4] + x[6] - Rij[4,6,0]
   - 0.8 r[4,0] - 0.8 r[4,2] - 1.6 r[4,3] + 0.35 r[6,0] + 0.7 r[6,1]
   + 0.35 r[6,2] <= 0
 rectRji[5,0,0,0,-0.35,-0.3,0.2,0.0,-0.75,1]: x[0] - x[5] - Rij[5,0,0]
   + 2.2 r[0,0] + 0.75 r[0,1] + 1.8 r[0,2] + 0.75 r[0,3] - 0.35 r[5,0]
   - 0.7 r[5,1] - 0.35 r[5,2] <= 0
 rectRji[6,0,0,0,-0.35,-0.3,0.2,0.0,0.75,1]: x[0] - x[6] - Rij[6,0,0]
   + 2.2 r[0,0] + 0.75 r[0,1] + 1.8 r[0,2] + 0.75 r[0,3] - 0.35 r[6,0]
   - 0.7 r[6,1] - 0.35 r[6,2] <= 0
 rectBij[0,1,0,1,0.0,-0.75,0.2,0.0,0.75,1]: y[0] - y[1] - Bij[0,1,0]
   + 0.75 r[0,0] + 3 r[0,1] + 0.75 r[0,2] + r[0,3] - 0.75 r[1,0]
   - 2.2 r[1,1] - 0.75 r[1,2] - 1.8 r[1,3] <= 0
 rectBij[1,2,0,1,0.0,-0.75,0.0,0.5,0.6,1]: y[1] - y[2] - Bij[1,2,0]
   + 0.75 r[1,0] + 3 r[1,1] + 0.75 r[1,2] + r[1,3] - r[2,0] - 0.5 r[2,1]
   - 0.5 r[2,3] <= 0
 rectBij[1,3,0,1,0.0,-0.75,0.0,0.5,0.6,1]: y[1] - y[3] - Bij[1,3,0]
   + 0.75 r[1,0] + 3 r[1,1] + 0.75 r[1,2] + r[1,3] - r[3,0] - 0.5 r[3,1]
   - 0.5 r[3,3] <= 0
 rectBij[2,3,0,0,0.5,-0.6,0.0,0.5,0.6,1]: y[2] - y[3] - Bij[2,3,0] + r[2,0]
   + 0.5 r[2,1] + 0.5 r[2,3] - r[3,0] - 0.5 r[3,1] - 0.5 r[3,3] <= 0
 rectBij[2,4,0,0,0.5,-0.6,0.0,0.8,0.6,1]: y[2] - y[4] - Bij[2,4,0] + r[2,0]
   + 0.5 r[2,1] + 0.5 r[2,3] - 1.6 r[4,0] - 0.8 r[4,1] - 0.8 r[4,3] <= 0
 rectBij[3,4,0,0,0.5,-0.6,0.0,0.8,0.6,1]: y[3] - y[4] - Bij[3,4,0] + r[3,0]
   + 0.5 r[3,1] + 0.5 r[3,3] - 1.6 r[4,0] - 0.8 r[4,1] - 0.8 r[4,3] <= 0
 rectBij[4,5,0,0,0.8,-0.6,0.0,-0.35,0.3,1]: y[4] - y[5] - Bij[4,5,0]
   + 1.6 r[4,0] + 0.8 r[4,1] + 0.8 r[4,3] - 0.35 r[5,1] - 0.7 r[5,2]
   - 0.35 r[5,3] <= 0
 rectBij[4,6,0,0,0.8,-0.6,0.0,-0.35,0.3,1]: y[4] - y[6] - Bij[4,6,0]
   + 1.6 r[4,0] + 0.8 r[4,1] + 0.8 r[4,3] - 0.35 r[6,1] - 0.7 r[6,2]
   - 0.35 r[6,3] <= 0
 rectBij[5,0,0,0,-0.35,-0.3,0.2,0.0,-0.75,1]: - y[0] + y[5] - Bij[5,0,0]
   - 0.75 r[0,0] - 2.2 r[0,1] - 0.75 r[0,2] - 1.8 r[0,3] + 0.35 r[5,1]
   + 0.7 r[5,2] + 0.35 r[5,3] <= 0
 rectBij[6,0,0,0,-0.35,-0.3,0.2,0.0,0.75,1]: - y[0] + y[6] - Bij[6,0,0]
   - 0.75 r[0,0] - 2.2 r[0,1] - 0.75 r[0,2] - 1.8 r[0,3] + 0.35 r[6,1]
   + 0.7 r[6,2] + 0.35 r[6,3] <= 0
 rectBji[0,1,0,1,0.0,-0.75,0.2,0.0,0.75,1]: - y[0] + y[1] - Bij[0,1,0]
   - 0.75 r[0,0] - 3 r[0,1] - 0.75 r[0,2] - r[0,3] + 0.75 r[1,0]
   + 2.2 r[1,1] + 0.75 r[1,2] + 1.8 r[1,3] <= 0
 rectBji[1,2,0,1,0.0,-0.75,0.0,0.5,0.6,1]: - y[1] + y[2] - Bij[1,2,0]
   - 0.75 r[1,0] - 3 r[1,1] - 0.75 r[1,2] - r[1,3] + r[2,0] + 0.5 r[2,1]
   + 0.5 r[2,3] <= 0
 rectBji[1,3,0,1,0.0,-0.75,0.0,0.5,0.6,1]: - y[1] + y[3] - Bij[1,3,0]
   - 0.75 r[1,0] - 3 r[1,1] - 0.75 r[1,2] - r[1,3] + r[3,0] + 0.5 r[3,1]
   + 0.5 r[3,3] <= 0
 rectBji[2,3,0,0,0.5,-0.6,0.0,0.5,0.6,1]: - y[2] + y[3] - Bij[2,3,0]
   - r[2,0] - 0.5 r[2,1] - 0.5 r[2,3] + r[3,0] + 0.5 r[3,1] + 0.5 r[3,3]
   <= 0
 rectBji[2,4,0,0,0.5,-0.6,0.0,0.8,0.6,1]: - y[2] + y[4] - Bij[2,4,0]
   - r[2,0] - 0.5 r[2,1] - 0.5 r[2,3] + 1.6 r[4,0] + 0.8 r[4,1]
   + 0.8 r[4,3] <= 0
 rectBji[3,4,0,0,0.5,-0.6,0.0,0.8,0.6,1]: - y[3] + y[4] - Bij[3,4,0]
   - r[3,0] - 0.5 r[3,1] - 0.5 r[3,3] + 1.6 r[4,0] + 0.8 r[4,1]
   + 0.8 r[4,3] <= 0
 rectBji[4,5,0,0,0.8,-0.6,0.0,-0.35,0.3,1]: - y[4] + y[5] - Bij[4,5,0]
   - 1.6 r[4,0] - 0.8 r[4,1] - 0.8 r[4,3] + 0.35 r[5,1] + 0.7 r[5,2]
   + 0.35 r[5,3] <= 0
 rectBji[4,6,0,0,0.8,-0.6,0.0,-0.35,0.3,1]: - y[4] + y[6] - Bij[4,6,0]
   - 1.6 r[4,0] - 0.8 r[4,1] - 0.8 r[4,3] + 0.35 r[6,1] + 0.7 r[6,2]
   + 0.35 r[6,3] <= 0
 rectBji[5,0,0,0,-0.35,-0.3,0.2,0.0,-0.75,1]: y[0] - y[5] - Bij[5,0,0]
   + 0.75 r[0,0] + 2.2 r[0,1] + 0.75 r[0,2] + 1.8 r[0,3] - 0.35 r[5,1]
   - 0.7 r[5,2] - 0.35 r[5,3] <= 0
 rectBji[6,0,0,0,-0.35,-0.3,0.2,0.0,0.75,1]: y[0] - y[6] - Bij[6,0,0]
   + 0.75 r[0,0] + 2.2 r[0,1] + 0.75 r[0,2] + 1.8 r[0,3] - 0.35 r[6,1]
   - 0.7 r[6,2] - 0.35 r[6,3] <= 0
 rectFij[0,1,0,1,0.0,-0.75,0.2,0.0,0.75,1]: z[0] - z[1] - Fij[0,1,0]
   <= 1.5
 rectFij[1,2,0,1,0.0,-0.75,0.0,0.5,0.6,1]: z[1] - z[2] - Fij[1,2,0]
   <= 1.35
 rectFij[1,3,0,1,0.0,-0.75,0.0,0.5,0.6,1]: z[1] - z[3] - Fij[1,3,0]
   <= 1.35
 rectFij[2,3,0,0,0.5,-0.6,0.0,0.5,0.6,1]: z[2] - z[3] - Fij[2,3,0] <= 1.2
 rectFij[2,4,0,0,0.5,-0.6,0.0,0.8,0.6,1]: z[2] - z[4] - Fij[2,4,0] <= 1.2
 rectFij[3,4,0,0,0.5,-0.6,0.0,0.8,0.6,1]: z[3] - z[4] - Fij[3,4,0] <= 1.2
 rectFij[4,5,0,0,0.8,-0.6,0.0,-0.35,0.3,1]: z[4] - z[5] - Fij[4,5,0]
   <= 0.9
 rectFij[4,6,0,0,0.8,-0.6,0.0,-0.35,0.3,1]: z[4] - z[6] - Fij[4,6,0]
   <= 0.9
 rectFij[5,0,0,0,-0.35,-0.3,0.2,0.0,-0.75,1]: - z[0] + z[5] - Fij[5,0,0]
   <= -0.45
 rectFij[6,0,0,0,-0.35,-0.3,0.2,0.0,0.75,1]: - z[0] + z[6] - Fij[6,0,0]
   <= 1.05
 rectFji[0,1,0,1,0.0,-0.75,0.2,0.0,0.75,1]: - z[0] + z[1] - Fij[0,1,0]
   <= -1.5
 rectFji[1,2,0,1,0.0,-0.75,0.0,0.5,0.6,1]: - z[1] + z[2] - Fij[1,2,0]
   <= -1.35
 rectFji[1,3,0,1,0.0,-0.75,0.0,0.5,0.6,1]: - z[1] + z[3] - Fij[1,3,0]
   <= -1.35
 rectFji[2,3,0,0,0.5,-0.6,0.0,0.5,0.6,1]: - z[2] + z[3] - Fij[2,3,0]
   <= -1.2
 rectFji[2,4,0,0,0.5,-0.6,0.0,0.8,0.6,1]: - z[2] + z[4] - Fij[2,4,0]
   <= -1.2
 rectFji[3,4,0,0,0.5,-0.6,0.0,0.8,0.6,1]: - z[3] + z[4] - Fij[3,4,0]
   <= -1.2
 rectFji[4,5,0,0,0.8,-0.6,0.0,-0.35,0.3,1]: - z[4] + z[5] - Fij[4,5,0]
   <= -0.9
 rectFji[4,6,0,0,0.8,-0.6,0.0,-0.35,0.3,1]: - z[4] + z[6] - Fij[4,6,0]
   <= -0.9
 rectFji[5,0,0,0,-0.35,-0.3,0.2,0.0,-0.75,1]: z[0] - z[5] - Fij[5,0,0]
   <= 0.45
 rectFji[6,0,0,0,-0.35,-0.3,0.2,0.0,0.75,1]: z[0] - z[6] - Fij[6,0,0]
   <= -1.05
 mklogical1[0,0]: - mvk[0,0] + mk[0] >= 0
 mklogical1[1,0]: - mvk[1,0] + mk[0] >= 0
 mklogical1[2,0]: - mvk[2,0] + mk[0] >= 0
 mklogical1[3,0]: - mvk[3,0] + mk[0] >= 0
 mklogical1[4,0]: - mvk[4,0] + mk[0] >= 0
 mklogical1[5,0]: - mvk[5,0] + mk[0] >= 0
 mklogical1[6,0]: - mvk[6,0] + mk[0] >= 0
 mklogical2[0]: - mvk[0,0] - mvk[1,0] - mvk[2,0] - mvk[3,0] - mvk[4,0]
   - mvk[5,0] - mvk[6,0] + mk[0] <= 0
Bounds
Binaries
 xuv[0,1] xuv[0,2] xuv[0,3] xuv[0,4] xuv[0,5] xuv[0,6] xuv[1,2] xuv[1,3]
 xuv[1,4] xuv[1,5] xuv[1,6] xuv[2,3] xuv[2,4] xuv[2,5] xuv[2,6] xuv[3,4]
 xuv[3,5] xuv[3,6] xuv[4,5] xuv[4,6] xuv[5,6] yuv[0,1] yuv[0,2] yuv[0,3]
 yuv[0,4] yuv[0,5] yuv[0,6] yuv[1,2] yuv[1,3] yuv[1,4] yuv[1,5] yuv[1,6]
 yuv[2,3] yuv[2,4] yuv[2,5] yuv[2,6] yuv[3,4] yuv[3,5] yuv[3,6] yuv[4,5]
 yuv[4,6] yuv[5,6] zuv[0,1] zuv[0,2] zuv[0,3] zuv[0,4] zuv[0,5] zuv[0,6]
 zuv[1,2] zuv[1,3] zuv[1,4] zuv[1,5] zuv[1,6] zuv[2,3] zuv[2,4] zuv[2,5]
 zuv[2,6] zuv[3,4] zuv[3,5] zuv[3,6] zuv[4,5] zuv[4,6] zuv[5,6] r[0,0]
 r[0,1] r[0,2] r[0,3] r[1,0] r[1,1] r[1,2] r[1,3] r[2,0] r[2,1] r[2,2]
 r[2,3] r[3,0] r[3,1] r[3,2] r[3,3] r[4,0] r[4,1] r[4,2] r[4,3] r[5,0]
 r[5,1] r[5,2] r[5,3] r[6,0] r[6,1] r[6,2] r[6,3] mvk[0,0] mvk[1,0]
 mvk[2,0] mvk[3,0] mvk[4,0] mvk[5,0] mvk[6,0] mk[0] nuvk[0,1,0] nuvk[0,2,0]
 nuvk[0,3,0] nuvk[0,4,0] nuvk[0,5,0] nuvk[0,6,0] nuvk[1,2,0] nuvk[1,3,0]
 nuvk[1,4,0] nuvk[1,5,0] nuvk[1,6,0] nuvk[2,3,0] nuvk[2,4,0] nuvk[2,5,0]
 nuvk[2,6,0] nuvk[3,4,0] nuvk[3,5,0] nuvk[3,6,0] nuvk[4,5,0] nuvk[4,6,0]
 nuvk[5,6,0] Nuv[0,1] Nuv[0,2] Nuv[0,3] Nuv[0,4] Nuv[0,5] Nuv[0,6] Nuv[1,2]
 Nuv[1,3] Nuv[1,4] Nuv[1,5] Nuv[1,6] Nuv[2,3] Nuv[2,4] Nuv[2,5] Nuv[2,6]
 Nuv[3,4] Nuv[3,5] Nuv[3,6] Nuv[4,5] Nuv[4,6] Nuv[5,6]
End
